attachment/production/5-diet/production-diet.dat
data;

set FoodTypes := F1 F2 F3 F4 F5;
set Nutrients := N1 N2 N3 N4;

param Food_Cost :=
	F1	450
	F2	220
	F3	675
	F4	120
	F5	500
	;

param Content:
		N1	N2	N3	N4 :=
	F1	30	5.2	0.2	0.0001
	F2	20	.	0.7	0.0001
	F3	25	2	0.1	0.0001
	F4	13	3.6	.	0.0002
	F5	19	0.1	.	0.0009
	;

param Requirement :=
	N1	2000
	N2	180
	N3	30
	N4	0.04
	;

# Solution: 29707.19, with food consumption of 0, 42.86, 0, 49.20, and 28.75 of F1, F2, F3, F4 and F5.

end;
